db/inputs/2139799349261966324920227172602031394.smt2
(set-logic QF_FP)
(declare-const x0 (_ FloatingPoint 8 24))
(declare-const x1 (_ FloatingPoint 8 24))
(declare-const x2 (_ FloatingPoint 8 24))
(declare-const x3 (_ FloatingPoint 8 24))
(declare-const x4 (_ FloatingPoint 8 24))
(declare-const x5 (_ FloatingPoint 8 24))
(declare-const x6 (_ FloatingPoint 8 24))
(declare-const x7 (_ FloatingPoint 8 24))
(declare-const x8 (_ FloatingPoint 8 24))
(declare-const x9 (_ FloatingPoint 8 24))
(declare-const x10 (_ FloatingPoint 8 24))
(declare-const x11 (_ FloatingPoint 8 24))
(declare-const x12 (_ FloatingPoint 8 24))
(declare-const x13 (_ FloatingPoint 8 24))
(declare-const x14 (_ FloatingPoint 8 24))
(declare-const x15 (_ FloatingPoint 8 24))
(declare-const x16 (_ FloatingPoint 8 24))
(declare-const x17 (_ FloatingPoint 8 24))
(declare-const x18 (_ FloatingPoint 8 24))
(declare-const x19 (_ FloatingPoint 8 24))
(declare-const x20 (_ FloatingPoint 8 24))
(declare-const x21 (_ FloatingPoint 8 24))
(declare-const x22 (_ FloatingPoint 8 24))
(declare-const x23 (_ FloatingPoint 8 24))
(declare-const x24 (_ FloatingPoint 8 24))
(declare-const x25 (_ FloatingPoint 8 24))
(assert (fp.eq (fp.sub RNE x12 x0) (fp.div RNE x25 x19)))
(assert (fp.leq (fp.sub RNE x16 x22) (fp.div RNE x0 x24)))
(assert (fp.geq (fp.sub RNE x7 x15) (fp.add RNE x15 x24)))
(assert (fp.leq (fp.sub RNE x19 x6) (fp.add RNE x24 x22)))
(assert (fp.geq (fp.neg x13) (fp.div RNE x9 x2)))
(assert (fp.geq (fp.neg x13) (fp.sub RNE x22 x20)))
(assert (fp.geq (fp.add RNE x20 x1) (fp.add RNE x21 x24)))
(assert (fp.gt (fp.sub RNE x11 x2) (fp.add RNE x22 x13)))
(assert (fp.geq (fp.neg x18) (fp.neg x24)))
(assert (fp.leq (fp.add RNE x19 x5) (fp.sub RNE x12 x19)))
(assert (fp.leq (fp.neg x15) (fp.div RNE x25 x6)))
(assert (fp.lt (fp.mul RNE x17 x2) (fp.neg x15)))
(assert (fp.lt (fp.div RNE x10 x25) (fp.neg x20)))
(assert (fp.gt (fp.sub RNE x23 x16) (fp.add RNE x10 x0)))
(assert (fp.leq (fp.sub RNE x10 x12) (fp.div RNE x11 x24)))
(assert (fp.lt (fp.sub RNE x0 x7) (fp.sub RNE x4 x24)))
(check-sat)
