db/data/2139799349261966324920227172602031394.z3.out
sat
-------------------
179.724005189
